language Essence 1.3

letting blksize_delta be function(1 --> 7, 2 --> 7, 3 --> 7, 4 --> 7, 5 --> 7, 6 --> 7, 7 --> 7)
letting maxcars be function(1 --> 10, 2 --> 10, 3 --> 10, 4 --> 10, 5 --> 10, 6 --> 10, 7 --> 10)
letting n_cars be 275
letting n_classes be 96
letting n_options be 7
letting quantity be
        function(1 --> 49, 2 --> 2, 3 --> 2, 4 --> 17, 5 --> 2, 6 --> 6, 7 --> 2, 8 --> 5, 9 --> 2, 10 --> 12, 11 --> 6,
                 12 --> 2, 13 --> 2, 14 --> 2, 15 --> 2, 16 --> 2, 17 --> 2, 18 --> 2, 19 --> 2, 20 --> 2, 21 --> 2,
                 22 --> 2, 23 --> 2, 24 --> 2, 25 --> 2, 26 --> 2, 27 --> 2, 28 --> 2, 29 --> 2, 30 --> 2, 31 --> 2,
                 32 --> 2, 33 --> 2, 34 --> 2, 35 --> 2, 36 --> 2, 37 --> 2, 38 --> 2, 39 --> 2, 40 --> 2, 41 --> 2,
                 42 --> 2, 43 --> 2, 44 --> 2, 45 --> 2, 46 --> 2, 47 --> 2, 48 --> 2, 49 --> 2, 50 --> 2, 51 --> 2,
                 52 --> 2, 53 --> 2, 54 --> 2, 55 --> 2, 56 --> 2, 57 --> 2, 58 --> 2, 59 --> 2, 60 --> 2, 61 --> 2,
                 62 --> 2, 63 --> 2, 64 --> 2, 65 --> 2, 66 --> 2, 67 --> 2, 68 --> 2, 69 --> 2, 70 --> 2, 71 --> 2,
                 72 --> 2, 73 --> 2, 74 --> 2, 75 --> 2, 76 --> 2, 77 --> 2, 78 --> 2, 79 --> 2, 80 --> 2, 81 --> 2,
                 82 --> 2, 83 --> 2, 84 --> 2, 85 --> 2, 86 --> 2, 87 --> 2, 88 --> 2, 89 --> 2, 90 --> 2, 91 --> 2,
                 92 --> 2, 93 --> 2, 94 --> 2, 95 --> 2, 96 --> 2)
letting usage be
        relation((1, 1), (1, 5), (1, 6), (2, 1), (2, 3), (3, 5), (3, 6), (3, 7), (4, 2), (4, 3), (5, 1), (5, 2), (6, 3),
                 (6, 5), (7, 3), (7, 5), (8, 1), (8, 7), (9, 2), (10, 2), (10, 4), (10, 6), (11, 3), (11, 4), (11, 5),
                 (12, 5), (13, 1), (14, 1), (14, 5), (14, 6), (15, 4), (16, 4), (17, 7), (18, 1), (18, 7), (19, 1),
                 (20, 1), (20, 2), (20, 3), (20, 5), (20, 7), (21, 4), (21, 6), (22, 7), (23, 5), (24, 4), (25, 4),
                 (26, 7), (27, 5), (27, 7), (28, 1), (28, 5), (28, 7), (29, 7), (30, 3), (30, 4), (31, 1), (31, 2),
                 (31, 5), (32, 3), (33, 3), (33, 6), (33, 7), (34, 1), (34, 3), (34, 5), (35, 3), (36, 2), (37, 2),
                 (37, 3), (37, 5), (37, 7), (38, 2), (38, 5), (39, 1), (39, 5), (39, 6), (40, 3), (41, 2), (42, 6),
                 (43, 7), (44, 7), (45, 3), (45, 6), (45, 7), (46, 3), (46, 7), (47, 2), (47, 6), (48, 7), (49, 7),
                 (50, 5), (50, 7), (51, 2), (52, 4), (52, 6), (52, 7), (53, 1), (53, 4), (53, 5), (53, 7), (54, 7),
                 (55, 7), (56, 3), (56, 6), (57, 2), (57, 3), (57, 4), (58, 4), (58, 5), (59, 7), (60, 7), (61, 7),
                 (62, 7), (63, 1), (63, 5), (64, 7), (65, 2), (66, 5), (67, 5), (67, 6), (68, 7), (69, 7), (70, 4),
                 (71, 2), (72, 1), (72, 2), (72, 3), (72, 6), (73, 3), (73, 5), (74, 1), (74, 2), (75, 4), (75, 5),
                 (76, 4), (77, 5), (78, 4), (78, 5), (79, 7), (80, 5), (81, 1), (81, 3), (82, 6), (83, 1), (83, 5),
                 (84, 2), (85, 6), (86, 1), (86, 3), (86, 6), (87, 5), (87, 6), (88, 5), (89, 2), (90, 7), (91, 3),
                 (92, 4), (93, 7), (94, 1), (94, 3), (94, 4), (95, 3), (96, 1))
$ Visualisation for usage
$  1  1
$  1  5
$  1  6
$  2  1
$  2  3
$  3  5
$  3  6
$  3  7
$  4  2
$  4  3
$  5  1
$  5  2
$  6  3
$  6  5
$  7  3
$  7  5
$  8  1
$  8  7
$  9  2
$ 10  2
$ 10  4
$ 10  6
$ 11  3
$ 11  4
$ 11  5
$ 12  5
$ 13  1
$ 14  1
$ 14  5
$ 14  6
$ 15  4
$ 16  4
$ 17  7
$ 18  1
$ 18  7
$ 19  1
$ 20  1
$ 20  2
$ 20  3
$ 20  5
$ 20  7
$ 21  4
$ 21  6
$ 22  7
$ 23  5
$ 24  4
$ 25  4
$ 26  7
$ 27  5
$ 27  7
$ 28  1
$ 28  5
$ 28  7
$ 29  7
$ 30  3
$ 30  4
$ 31  1
$ 31  2
$ 31  5
$ 32  3
$ 33  3
$ 33  6
$ 33  7
$ 34  1
$ 34  3
$ 34  5
$ 35  3
$ 36  2
$ 37  2
$ 37  3
$ 37  5
$ 37  7
$ 38  2
$ 38  5
$ 39  1
$ 39  5
$ 39  6
$ 40  3
$ 41  2
$ 42  6
$ 43  7
$ 44  7
$ 45  3
$ 45  6
$ 45  7
$ 46  3
$ 46  7
$ 47  2
$ 47  6
$ 48  7
$ 49  7
$ 50  5
$ 50  7
$ 51  2
$ 52  4
$ 52  6
$ 52  7
$ 53  1
$ 53  4
$ 53  5
$ 53  7
$ 54  7
$ 55  7
$ 56  3
$ 56  6
$ 57  2
$ 57  3
$ 57  4
$ 58  4
$ 58  5
$ 59  7
$ 60  7
$ 61  7
$ 62  7
$ 63  1
$ 63  5
$ 64  7
$ 65  2
$ 66  5
$ 67  5
$ 67  6
$ 68  7
$ 69  7
$ 70  4
$ 71  2
$ 72  1
$ 72  2
$ 72  3
$ 72  6
$ 73  3
$ 73  5
$ 74  1
$ 74  2
$ 75  4
$ 75  5
$ 76  4
$ 77  5
$ 78  4
$ 78  5
$ 79  7
$ 80  5
$ 81  1
$ 81  3
$ 82  6
$ 83  1
$ 83  5
$ 84  2
$ 85  6
$ 86  1
$ 86  3
$ 86  6
$ 87  5
$ 87  6
$ 88  5
$ 89  2
$ 90  7
$ 91  3
$ 92  4
$ 93  7
$ 94  1
$ 94  3
$ 94  4
$ 95  3
$ 96  1

